p cnf 7230 17
-2118 -2836 3419 0
-2844 -3288 -3424 0
-2842 -2856 -3422 0
-2840 -3282 -3420 0
2844 -3425 0
2842 -3423 0
2840 -3421 0
3424 3425 0
3422 3423 0
3420 3421 0
3288 -3425 0
2856 -3423 0
3282 -3421 0
-3418 -3419 0
2846 -3427 0
2128 -3427 0
3418 3419 0
